Minimize
  - 11 y_0 - 14 y_1 - 6 y_2 - 13 y_3 - 14 y_4 - 17 y_5 - 15 y_7 - 5 y_8
   - 17 y_9 - 15 y_10 - 6 y_11 - 6 y_12 - 19 y_13 - 17 y_14 - 7 y_15
   - 22 y_16 - 23 y_17 - 22 y_18 - 12 y_19 + 261 Constant
Subject To
 c_0: y_19 = 1
 c_1_0: y_0 + y_3 + y_10 >= 1
 c_1_1: y_1 + y_3 + y_4 + y_5 + y_9 >= 1
 c_1_2: y_2 + y_8 + y_11 >= 1
 c_1_3: y_0 + y_1 + y_3 + y_10 >= 1
 c_1_4: y_1 + y_4 + y_9 >= 1
 c_1_5: y_1 + y_5 + y_9 + y_10 + y_13 >= 1
 c_1_6: y_6 >= 1
 c_1_7: y_7 + y_14 + y_19 >= 1
 c_1_8: y_2 + y_8 + y_11 + y_12 + y_15 >= 1
 c_1_9: y_1 + y_4 + y_5 + y_9 + y_13 >= 1
 c_1_10: y_0 + y_3 + y_5 + y_10 >= 1
 c_1_11: y_2 + y_8 + y_11 >= 1
 c_1_12: y_8 + y_12 + y_15 >= 1
 c_1_13: y_5 + y_9 + y_13 >= 1
 c_1_14: y_7 + y_14 >= 1
 c_1_15: y_8 + y_12 + y_15 >= 1
 c_1_16: y_16 + y_17 + y_18 >= 1
 c_1_17: y_16 + y_17 + y_18 >= 1
 c_1_18: y_16 + y_17 + y_18 >= 1
 c_1_19: y_7 + y_19 >= 1
Bounds
 Constant = 1
Binaries
 y_0 y_1 y_2 y_3 y_4 y_5 y_6 y_7 y_8 y_9 y_10 y_11 y_12 y_13 y_14 y_15 y_16
 y_17 y_18 y_19
End
